c *********************************
c * Circuit generated by BenCGen
c *
c * CarrySaveAdder_119_119_119_119_120
c *
c * Ports with 1 gate(s): 2
c * Ports with 2 gate(s): 596
c * Total gates: 598
c *********************************
p cnf 955 2030
1 598 0
-1 -598 0
1 -597 0
598 -597 0
-1 -598 597 0
597 -477 0
-597 477 0
1 120 -599 0
-1 120 599 0
1 -120 599 0
-1 -120 -599 0
599 239 -358 0
-599 239 358 0
599 -239 358 0
-599 -239 -358 0
239 -600 0
599 -600 0
-239 -599 600 0
120 -601 0
1 -601 0
-120 -1 601 0
-600 478 0
-601 478 0
600 601 -478 0
2 121 -602 0
-2 121 602 0
2 -121 602 0
-2 -121 -602 0
602 240 -359 0
-602 240 359 0
602 -240 359 0
-602 -240 -359 0
240 -603 0
602 -603 0
-240 -602 603 0
121 -604 0
2 -604 0
-121 -2 604 0
-603 479 0
-604 479 0
603 604 -479 0
3 122 -605 0
-3 122 605 0
3 -122 605 0
-3 -122 -605 0
605 241 -360 0
-605 241 360 0
605 -241 360 0
-605 -241 -360 0
241 -606 0
605 -606 0
-241 -605 606 0
122 -607 0
3 -607 0
-122 -3 607 0
-606 480 0
-607 480 0
606 607 -480 0
4 123 -608 0
-4 123 608 0
4 -123 608 0
-4 -123 -608 0
608 242 -361 0
-608 242 361 0
608 -242 361 0
-608 -242 -361 0
242 -609 0
608 -609 0
-242 -608 609 0
123 -610 0
4 -610 0
-123 -4 610 0
-609 481 0
-610 481 0
609 610 -481 0
5 124 -611 0
-5 124 611 0
5 -124 611 0
-5 -124 -611 0
611 243 -362 0
-611 243 362 0
611 -243 362 0
-611 -243 -362 0
243 -612 0
611 -612 0
-243 -611 612 0
124 -613 0
5 -613 0
-124 -5 613 0
-612 482 0
-613 482 0
612 613 -482 0
6 125 -614 0
-6 125 614 0
6 -125 614 0
-6 -125 -614 0
614 244 -363 0
-614 244 363 0
614 -244 363 0
-614 -244 -363 0
244 -615 0
614 -615 0
-244 -614 615 0
125 -616 0
6 -616 0
-125 -6 616 0
-615 483 0
-616 483 0
615 616 -483 0
7 126 -617 0
-7 126 617 0
7 -126 617 0
-7 -126 -617 0
617 245 -364 0
-617 245 364 0
617 -245 364 0
-617 -245 -364 0
245 -618 0
617 -618 0
-245 -617 618 0
126 -619 0
7 -619 0
-126 -7 619 0
-618 484 0
-619 484 0
618 619 -484 0
8 127 -620 0
-8 127 620 0
8 -127 620 0
-8 -127 -620 0
620 246 -365 0
-620 246 365 0
620 -246 365 0
-620 -246 -365 0
246 -621 0
620 -621 0
-246 -620 621 0
127 -622 0
8 -622 0
-127 -8 622 0
-621 485 0
-622 485 0
621 622 -485 0
9 128 -623 0
-9 128 623 0
9 -128 623 0
-9 -128 -623 0
623 247 -366 0
-623 247 366 0
623 -247 366 0
-623 -247 -366 0
247 -624 0
623 -624 0
-247 -623 624 0
128 -625 0
9 -625 0
-128 -9 625 0
-624 486 0
-625 486 0
624 625 -486 0
10 129 -626 0
-10 129 626 0
10 -129 626 0
-10 -129 -626 0
626 248 -367 0
-626 248 367 0
626 -248 367 0
-626 -248 -367 0
248 -627 0
626 -627 0
-248 -626 627 0
129 -628 0
10 -628 0
-129 -10 628 0
-627 487 0
-628 487 0
627 628 -487 0
11 130 -629 0
-11 130 629 0
11 -130 629 0
-11 -130 -629 0
629 249 -368 0
-629 249 368 0
629 -249 368 0
-629 -249 -368 0
249 -630 0
629 -630 0
-249 -629 630 0
130 -631 0
11 -631 0
-130 -11 631 0
-630 488 0
-631 488 0
630 631 -488 0
12 131 -632 0
-12 131 632 0
12 -131 632 0
-12 -131 -632 0
632 250 -369 0
-632 250 369 0
632 -250 369 0
-632 -250 -369 0
250 -633 0
632 -633 0
-250 -632 633 0
131 -634 0
12 -634 0
-131 -12 634 0
-633 489 0
-634 489 0
633 634 -489 0
13 132 -635 0
-13 132 635 0
13 -132 635 0
-13 -132 -635 0
635 251 -370 0
-635 251 370 0
635 -251 370 0
-635 -251 -370 0
251 -636 0
635 -636 0
-251 -635 636 0
132 -637 0
13 -637 0
-132 -13 637 0
-636 490 0
-637 490 0
636 637 -490 0
14 133 -638 0
-14 133 638 0
14 -133 638 0
-14 -133 -638 0
638 252 -371 0
-638 252 371 0
638 -252 371 0
-638 -252 -371 0
252 -639 0
638 -639 0
-252 -638 639 0
133 -640 0
14 -640 0
-133 -14 640 0
-639 491 0
-640 491 0
639 640 -491 0
15 134 -641 0
-15 134 641 0
15 -134 641 0
-15 -134 -641 0
641 253 -372 0
-641 253 372 0
641 -253 372 0
-641 -253 -372 0
253 -642 0
641 -642 0
-253 -641 642 0
134 -643 0
15 -643 0
-134 -15 643 0
-642 492 0
-643 492 0
642 643 -492 0
16 135 -644 0
-16 135 644 0
16 -135 644 0
-16 -135 -644 0
644 254 -373 0
-644 254 373 0
644 -254 373 0
-644 -254 -373 0
254 -645 0
644 -645 0
-254 -644 645 0
135 -646 0
16 -646 0
-135 -16 646 0
-645 493 0
-646 493 0
645 646 -493 0
17 136 -647 0
-17 136 647 0
17 -136 647 0
-17 -136 -647 0
647 255 -374 0
-647 255 374 0
647 -255 374 0
-647 -255 -374 0
255 -648 0
647 -648 0
-255 -647 648 0
136 -649 0
17 -649 0
-136 -17 649 0
-648 494 0
-649 494 0
648 649 -494 0
18 137 -650 0
-18 137 650 0
18 -137 650 0
-18 -137 -650 0
650 256 -375 0
-650 256 375 0
650 -256 375 0
-650 -256 -375 0
256 -651 0
650 -651 0
-256 -650 651 0
137 -652 0
18 -652 0
-137 -18 652 0
-651 495 0
-652 495 0
651 652 -495 0
19 138 -653 0
-19 138 653 0
19 -138 653 0
-19 -138 -653 0
653 257 -376 0
-653 257 376 0
653 -257 376 0
-653 -257 -376 0
257 -654 0
653 -654 0
-257 -653 654 0
138 -655 0
19 -655 0
-138 -19 655 0
-654 496 0
-655 496 0
654 655 -496 0
20 139 -656 0
-20 139 656 0
20 -139 656 0
-20 -139 -656 0
656 258 -377 0
-656 258 377 0
656 -258 377 0
-656 -258 -377 0
258 -657 0
656 -657 0
-258 -656 657 0
139 -658 0
20 -658 0
-139 -20 658 0
-657 497 0
-658 497 0
657 658 -497 0
21 140 -659 0
-21 140 659 0
21 -140 659 0
-21 -140 -659 0
659 259 -378 0
-659 259 378 0
659 -259 378 0
-659 -259 -378 0
259 -660 0
659 -660 0
-259 -659 660 0
140 -661 0
21 -661 0
-140 -21 661 0
-660 498 0
-661 498 0
660 661 -498 0
22 141 -662 0
-22 141 662 0
22 -141 662 0
-22 -141 -662 0
662 260 -379 0
-662 260 379 0
662 -260 379 0
-662 -260 -379 0
260 -663 0
662 -663 0
-260 -662 663 0
141 -664 0
22 -664 0
-141 -22 664 0
-663 499 0
-664 499 0
663 664 -499 0
23 142 -665 0
-23 142 665 0
23 -142 665 0
-23 -142 -665 0
665 261 -380 0
-665 261 380 0
665 -261 380 0
-665 -261 -380 0
261 -666 0
665 -666 0
-261 -665 666 0
142 -667 0
23 -667 0
-142 -23 667 0
-666 500 0
-667 500 0
666 667 -500 0
24 143 -668 0
-24 143 668 0
24 -143 668 0
-24 -143 -668 0
668 262 -381 0
-668 262 381 0
668 -262 381 0
-668 -262 -381 0
262 -669 0
668 -669 0
-262 -668 669 0
143 -670 0
24 -670 0
-143 -24 670 0
-669 501 0
-670 501 0
669 670 -501 0
25 144 -671 0
-25 144 671 0
25 -144 671 0
-25 -144 -671 0
671 263 -382 0
-671 263 382 0
671 -263 382 0
-671 -263 -382 0
263 -672 0
671 -672 0
-263 -671 672 0
144 -673 0
25 -673 0
-144 -25 673 0
-672 502 0
-673 502 0
672 673 -502 0
26 145 -674 0
-26 145 674 0
26 -145 674 0
-26 -145 -674 0
674 264 -383 0
-674 264 383 0
674 -264 383 0
-674 -264 -383 0
264 -675 0
674 -675 0
-264 -674 675 0
145 -676 0
26 -676 0
-145 -26 676 0
-675 503 0
-676 503 0
675 676 -503 0
27 146 -677 0
-27 146 677 0
27 -146 677 0
-27 -146 -677 0
677 265 -384 0
-677 265 384 0
677 -265 384 0
-677 -265 -384 0
265 -678 0
677 -678 0
-265 -677 678 0
146 -679 0
27 -679 0
-146 -27 679 0
-678 504 0
-679 504 0
678 679 -504 0
28 147 -680 0
-28 147 680 0
28 -147 680 0
-28 -147 -680 0
680 266 -385 0
-680 266 385 0
680 -266 385 0
-680 -266 -385 0
266 -681 0
680 -681 0
-266 -680 681 0
147 -682 0
28 -682 0
-147 -28 682 0
-681 505 0
-682 505 0
681 682 -505 0
29 148 -683 0
-29 148 683 0
29 -148 683 0
-29 -148 -683 0
683 267 -386 0
-683 267 386 0
683 -267 386 0
-683 -267 -386 0
267 -684 0
683 -684 0
-267 -683 684 0
148 -685 0
29 -685 0
-148 -29 685 0
-684 506 0
-685 506 0
684 685 -506 0
30 149 -686 0
-30 149 686 0
30 -149 686 0
-30 -149 -686 0
686 268 -387 0
-686 268 387 0
686 -268 387 0
-686 -268 -387 0
268 -687 0
686 -687 0
-268 -686 687 0
149 -688 0
30 -688 0
-149 -30 688 0
-687 507 0
-688 507 0
687 688 -507 0
31 150 -689 0
-31 150 689 0
31 -150 689 0
-31 -150 -689 0
689 269 -388 0
-689 269 388 0
689 -269 388 0
-689 -269 -388 0
269 -690 0
689 -690 0
-269 -689 690 0
150 -691 0
31 -691 0
-150 -31 691 0
-690 508 0
-691 508 0
690 691 -508 0
32 151 -692 0
-32 151 692 0
32 -151 692 0
-32 -151 -692 0
692 270 -389 0
-692 270 389 0
692 -270 389 0
-692 -270 -389 0
270 -693 0
692 -693 0
-270 -692 693 0
151 -694 0
32 -694 0
-151 -32 694 0
-693 509 0
-694 509 0
693 694 -509 0
33 152 -695 0
-33 152 695 0
33 -152 695 0
-33 -152 -695 0
695 271 -390 0
-695 271 390 0
695 -271 390 0
-695 -271 -390 0
271 -696 0
695 -696 0
-271 -695 696 0
152 -697 0
33 -697 0
-152 -33 697 0
-696 510 0
-697 510 0
696 697 -510 0
34 153 -698 0
-34 153 698 0
34 -153 698 0
-34 -153 -698 0
698 272 -391 0
-698 272 391 0
698 -272 391 0
-698 -272 -391 0
272 -699 0
698 -699 0
-272 -698 699 0
153 -700 0
34 -700 0
-153 -34 700 0
-699 511 0
-700 511 0
699 700 -511 0
35 154 -701 0
-35 154 701 0
35 -154 701 0
-35 -154 -701 0
701 273 -392 0
-701 273 392 0
701 -273 392 0
-701 -273 -392 0
273 -702 0
701 -702 0
-273 -701 702 0
154 -703 0
35 -703 0
-154 -35 703 0
-702 512 0
-703 512 0
702 703 -512 0
36 155 -704 0
-36 155 704 0
36 -155 704 0
-36 -155 -704 0
704 274 -393 0
-704 274 393 0
704 -274 393 0
-704 -274 -393 0
274 -705 0
704 -705 0
-274 -704 705 0
155 -706 0
36 -706 0
-155 -36 706 0
-705 513 0
-706 513 0
705 706 -513 0
37 156 -707 0
-37 156 707 0
37 -156 707 0
-37 -156 -707 0
707 275 -394 0
-707 275 394 0
707 -275 394 0
-707 -275 -394 0
275 -708 0
707 -708 0
-275 -707 708 0
156 -709 0
37 -709 0
-156 -37 709 0
-708 514 0
-709 514 0
708 709 -514 0
38 157 -710 0
-38 157 710 0
38 -157 710 0
-38 -157 -710 0
710 276 -395 0
-710 276 395 0
710 -276 395 0
-710 -276 -395 0
276 -711 0
710 -711 0
-276 -710 711 0
157 -712 0
38 -712 0
-157 -38 712 0
-711 515 0
-712 515 0
711 712 -515 0
39 158 -713 0
-39 158 713 0
39 -158 713 0
-39 -158 -713 0
713 277 -396 0
-713 277 396 0
713 -277 396 0
-713 -277 -396 0
277 -714 0
713 -714 0
-277 -713 714 0
158 -715 0
39 -715 0
-158 -39 715 0
-714 516 0
-715 516 0
714 715 -516 0
40 159 -716 0
-40 159 716 0
40 -159 716 0
-40 -159 -716 0
716 278 -397 0
-716 278 397 0
716 -278 397 0
-716 -278 -397 0
278 -717 0
716 -717 0
-278 -716 717 0
159 -718 0
40 -718 0
-159 -40 718 0
-717 517 0
-718 517 0
717 718 -517 0
41 160 -719 0
-41 160 719 0
41 -160 719 0
-41 -160 -719 0
719 279 -398 0
-719 279 398 0
719 -279 398 0
-719 -279 -398 0
279 -720 0
719 -720 0
-279 -719 720 0
160 -721 0
41 -721 0
-160 -41 721 0
-720 518 0
-721 518 0
720 721 -518 0
42 161 -722 0
-42 161 722 0
42 -161 722 0
-42 -161 -722 0
722 280 -399 0
-722 280 399 0
722 -280 399 0
-722 -280 -399 0
280 -723 0
722 -723 0
-280 -722 723 0
161 -724 0
42 -724 0
-161 -42 724 0
-723 519 0
-724 519 0
723 724 -519 0
43 162 -725 0
-43 162 725 0
43 -162 725 0
-43 -162 -725 0
725 281 -400 0
-725 281 400 0
725 -281 400 0
-725 -281 -400 0
281 -726 0
725 -726 0
-281 -725 726 0
162 -727 0
43 -727 0
-162 -43 727 0
-726 520 0
-727 520 0
726 727 -520 0
44 163 -728 0
-44 163 728 0
44 -163 728 0
-44 -163 -728 0
728 282 -401 0
-728 282 401 0
728 -282 401 0
-728 -282 -401 0
282 -729 0
728 -729 0
-282 -728 729 0
163 -730 0
44 -730 0
-163 -44 730 0
-729 521 0
-730 521 0
729 730 -521 0
45 164 -731 0
-45 164 731 0
45 -164 731 0
-45 -164 -731 0
731 283 -402 0
-731 283 402 0
731 -283 402 0
-731 -283 -402 0
283 -732 0
731 -732 0
-283 -731 732 0
164 -733 0
45 -733 0
-164 -45 733 0
-732 522 0
-733 522 0
732 733 -522 0
46 165 -734 0
-46 165 734 0
46 -165 734 0
-46 -165 -734 0
734 284 -403 0
-734 284 403 0
734 -284 403 0
-734 -284 -403 0
284 -735 0
734 -735 0
-284 -734 735 0
165 -736 0
46 -736 0
-165 -46 736 0
-735 523 0
-736 523 0
735 736 -523 0
47 166 -737 0
-47 166 737 0
47 -166 737 0
-47 -166 -737 0
737 285 -404 0
-737 285 404 0
737 -285 404 0
-737 -285 -404 0
285 -738 0
737 -738 0
-285 -737 738 0
166 -739 0
47 -739 0
-166 -47 739 0
-738 524 0
-739 524 0
738 739 -524 0
48 167 -740 0
-48 167 740 0
48 -167 740 0
-48 -167 -740 0
740 286 -405 0
-740 286 405 0
740 -286 405 0
-740 -286 -405 0
286 -741 0
740 -741 0
-286 -740 741 0
167 -742 0
48 -742 0
-167 -48 742 0
-741 525 0
-742 525 0
741 742 -525 0
49 168 -743 0
-49 168 743 0
49 -168 743 0
-49 -168 -743 0
743 287 -406 0
-743 287 406 0
743 -287 406 0
-743 -287 -406 0
287 -744 0
743 -744 0
-287 -743 744 0
168 -745 0
49 -745 0
-168 -49 745 0
-744 526 0
-745 526 0
744 745 -526 0
50 169 -746 0
-50 169 746 0
50 -169 746 0
-50 -169 -746 0
746 288 -407 0
-746 288 407 0
746 -288 407 0
-746 -288 -407 0
288 -747 0
746 -747 0
-288 -746 747 0
169 -748 0
50 -748 0
-169 -50 748 0
-747 527 0
-748 527 0
747 748 -527 0
51 170 -749 0
-51 170 749 0
51 -170 749 0
-51 -170 -749 0
749 289 -408 0
-749 289 408 0
749 -289 408 0
-749 -289 -408 0
289 -750 0
749 -750 0
-289 -749 750 0
170 -751 0
51 -751 0
-170 -51 751 0
-750 528 0
-751 528 0
750 751 -528 0
52 171 -752 0
-52 171 752 0
52 -171 752 0
-52 -171 -752 0
752 290 -409 0
-752 290 409 0
752 -290 409 0
-752 -290 -409 0
290 -753 0
752 -753 0
-290 -752 753 0
171 -754 0
52 -754 0
-171 -52 754 0
-753 529 0
-754 529 0
753 754 -529 0
53 172 -755 0
-53 172 755 0
53 -172 755 0
-53 -172 -755 0
755 291 -410 0
-755 291 410 0
755 -291 410 0
-755 -291 -410 0
291 -756 0
755 -756 0
-291 -755 756 0
172 -757 0
53 -757 0
-172 -53 757 0
-756 530 0
-757 530 0
756 757 -530 0
54 173 -758 0
-54 173 758 0
54 -173 758 0
-54 -173 -758 0
758 292 -411 0
-758 292 411 0
758 -292 411 0
-758 -292 -411 0
292 -759 0
758 -759 0
-292 -758 759 0
173 -760 0
54 -760 0
-173 -54 760 0
-759 531 0
-760 531 0
759 760 -531 0
55 174 -761 0
-55 174 761 0
55 -174 761 0
-55 -174 -761 0
761 293 -412 0
-761 293 412 0
761 -293 412 0
-761 -293 -412 0
293 -762 0
761 -762 0
-293 -761 762 0
174 -763 0
55 -763 0
-174 -55 763 0
-762 532 0
-763 532 0
762 763 -532 0
56 175 -764 0
-56 175 764 0
56 -175 764 0
-56 -175 -764 0
764 294 -413 0
-764 294 413 0
764 -294 413 0
-764 -294 -413 0
294 -765 0
764 -765 0
-294 -764 765 0
175 -766 0
56 -766 0
-175 -56 766 0
-765 533 0
-766 533 0
765 766 -533 0
57 176 -767 0
-57 176 767 0
57 -176 767 0
-57 -176 -767 0
767 295 -414 0
-767 295 414 0
767 -295 414 0
-767 -295 -414 0
295 -768 0
767 -768 0
-295 -767 768 0
176 -769 0
57 -769 0
-176 -57 769 0
-768 534 0
-769 534 0
768 769 -534 0
58 177 -770 0
-58 177 770 0
58 -177 770 0
-58 -177 -770 0
770 296 -415 0
-770 296 415 0
770 -296 415 0
-770 -296 -415 0
296 -771 0
770 -771 0
-296 -770 771 0
177 -772 0
58 -772 0
-177 -58 772 0
-771 535 0
-772 535 0
771 772 -535 0
59 178 -773 0
-59 178 773 0
59 -178 773 0
-59 -178 -773 0
773 297 -416 0
-773 297 416 0
773 -297 416 0
-773 -297 -416 0
297 -774 0
773 -774 0
-297 -773 774 0
178 -775 0
59 -775 0
-178 -59 775 0
-774 536 0
-775 536 0
774 775 -536 0
60 179 -776 0
-60 179 776 0
60 -179 776 0
-60 -179 -776 0
776 298 -417 0
-776 298 417 0
776 -298 417 0
-776 -298 -417 0
298 -777 0
776 -777 0
-298 -776 777 0
179 -778 0
60 -778 0
-179 -60 778 0
-777 537 0
-778 537 0
777 778 -537 0
61 180 -779 0
-61 180 779 0
61 -180 779 0
-61 -180 -779 0
779 299 -418 0
-779 299 418 0
779 -299 418 0
-779 -299 -418 0
299 -780 0
779 -780 0
-299 -779 780 0
180 -781 0
61 -781 0
-180 -61 781 0
-780 538 0
-781 538 0
780 781 -538 0
62 181 -782 0
-62 181 782 0
62 -181 782 0
-62 -181 -782 0
782 300 -419 0
-782 300 419 0
782 -300 419 0
-782 -300 -419 0
300 -783 0
782 -783 0
-300 -782 783 0
181 -784 0
62 -784 0
-181 -62 784 0
-783 539 0
-784 539 0
783 784 -539 0
63 182 -785 0
-63 182 785 0
63 -182 785 0
-63 -182 -785 0
785 301 -420 0
-785 301 420 0
785 -301 420 0
-785 -301 -420 0
301 -786 0
785 -786 0
-301 -785 786 0
182 -787 0
63 -787 0
-182 -63 787 0
-786 540 0
-787 540 0
786 787 -540 0
64 183 -788 0
-64 183 788 0
64 -183 788 0
-64 -183 -788 0
788 302 -421 0
-788 302 421 0
788 -302 421 0
-788 -302 -421 0
302 -789 0
788 -789 0
-302 -788 789 0
183 -790 0
64 -790 0
-183 -64 790 0
-789 541 0
-790 541 0
789 790 -541 0
65 184 -791 0
-65 184 791 0
65 -184 791 0
-65 -184 -791 0
791 303 -422 0
-791 303 422 0
791 -303 422 0
-791 -303 -422 0
303 -792 0
791 -792 0
-303 -791 792 0
184 -793 0
65 -793 0
-184 -65 793 0
-792 542 0
-793 542 0
792 793 -542 0
66 185 -794 0
-66 185 794 0
66 -185 794 0
-66 -185 -794 0
794 304 -423 0
-794 304 423 0
794 -304 423 0
-794 -304 -423 0
304 -795 0
794 -795 0
-304 -794 795 0
185 -796 0
66 -796 0
-185 -66 796 0
-795 543 0
-796 543 0
795 796 -543 0
67 186 -797 0
-67 186 797 0
67 -186 797 0
-67 -186 -797 0
797 305 -424 0
-797 305 424 0
797 -305 424 0
-797 -305 -424 0
305 -798 0
797 -798 0
-305 -797 798 0
186 -799 0
67 -799 0
-186 -67 799 0
-798 544 0
-799 544 0
798 799 -544 0
68 187 -800 0
-68 187 800 0
68 -187 800 0
-68 -187 -800 0
800 306 -425 0
-800 306 425 0
800 -306 425 0
-800 -306 -425 0
306 -801 0
800 -801 0
-306 -800 801 0
187 -802 0
68 -802 0
-187 -68 802 0
-801 545 0
-802 545 0
801 802 -545 0
69 188 -803 0
-69 188 803 0
69 -188 803 0
-69 -188 -803 0
803 307 -426 0
-803 307 426 0
803 -307 426 0
-803 -307 -426 0
307 -804 0
803 -804 0
-307 -803 804 0
188 -805 0
69 -805 0
-188 -69 805 0
-804 546 0
-805 546 0
804 805 -546 0
70 189 -806 0
-70 189 806 0
70 -189 806 0
-70 -189 -806 0
806 308 -427 0
-806 308 427 0
806 -308 427 0
-806 -308 -427 0
308 -807 0
806 -807 0
-308 -806 807 0
189 -808 0
70 -808 0
-189 -70 808 0
-807 547 0
-808 547 0
807 808 -547 0
71 190 -809 0
-71 190 809 0
71 -190 809 0
-71 -190 -809 0
809 309 -428 0
-809 309 428 0
809 -309 428 0
-809 -309 -428 0
309 -810 0
809 -810 0
-309 -809 810 0
190 -811 0
71 -811 0
-190 -71 811 0
-810 548 0
-811 548 0
810 811 -548 0
72 191 -812 0
-72 191 812 0
72 -191 812 0
-72 -191 -812 0
812 310 -429 0
-812 310 429 0
812 -310 429 0
-812 -310 -429 0
310 -813 0
812 -813 0
-310 -812 813 0
191 -814 0
72 -814 0
-191 -72 814 0
-813 549 0
-814 549 0
813 814 -549 0
73 192 -815 0
-73 192 815 0
73 -192 815 0
-73 -192 -815 0
815 311 -430 0
-815 311 430 0
815 -311 430 0
-815 -311 -430 0
311 -816 0
815 -816 0
-311 -815 816 0
192 -817 0
73 -817 0
-192 -73 817 0
-816 550 0
-817 550 0
816 817 -550 0
74 193 -818 0
-74 193 818 0
74 -193 818 0
-74 -193 -818 0
818 312 -431 0
-818 312 431 0
818 -312 431 0
-818 -312 -431 0
312 -819 0
818 -819 0
-312 -818 819 0
193 -820 0
74 -820 0
-193 -74 820 0
-819 551 0
-820 551 0
819 820 -551 0
75 194 -821 0
-75 194 821 0
75 -194 821 0
-75 -194 -821 0
821 313 -432 0
-821 313 432 0
821 -313 432 0
-821 -313 -432 0
313 -822 0
821 -822 0
-313 -821 822 0
194 -823 0
75 -823 0
-194 -75 823 0
-822 552 0
-823 552 0
822 823 -552 0
76 195 -824 0
-76 195 824 0
76 -195 824 0
-76 -195 -824 0
824 314 -433 0
-824 314 433 0
824 -314 433 0
-824 -314 -433 0
314 -825 0
824 -825 0
-314 -824 825 0
195 -826 0
76 -826 0
-195 -76 826 0
-825 553 0
-826 553 0
825 826 -553 0
77 196 -827 0
-77 196 827 0
77 -196 827 0
-77 -196 -827 0
827 315 -434 0
-827 315 434 0
827 -315 434 0
-827 -315 -434 0
315 -828 0
827 -828 0
-315 -827 828 0
196 -829 0
77 -829 0
-196 -77 829 0
-828 554 0
-829 554 0
828 829 -554 0
78 197 -830 0
-78 197 830 0
78 -197 830 0
-78 -197 -830 0
830 316 -435 0
-830 316 435 0
830 -316 435 0
-830 -316 -435 0
316 -831 0
830 -831 0
-316 -830 831 0
197 -832 0
78 -832 0
-197 -78 832 0
-831 555 0
-832 555 0
831 832 -555 0
79 198 -833 0
-79 198 833 0
79 -198 833 0
-79 -198 -833 0
833 317 -436 0
-833 317 436 0
833 -317 436 0
-833 -317 -436 0
317 -834 0
833 -834 0
-317 -833 834 0
198 -835 0
79 -835 0
-198 -79 835 0
-834 556 0
-835 556 0
834 835 -556 0
80 199 -836 0
-80 199 836 0
80 -199 836 0
-80 -199 -836 0
836 318 -437 0
-836 318 437 0
836 -318 437 0
-836 -318 -437 0
318 -837 0
836 -837 0
-318 -836 837 0
199 -838 0
80 -838 0
-199 -80 838 0
-837 557 0
-838 557 0
837 838 -557 0
81 200 -839 0
-81 200 839 0
81 -200 839 0
-81 -200 -839 0
839 319 -438 0
-839 319 438 0
839 -319 438 0
-839 -319 -438 0
319 -840 0
839 -840 0
-319 -839 840 0
200 -841 0
81 -841 0
-200 -81 841 0
-840 558 0
-841 558 0
840 841 -558 0
82 201 -842 0
-82 201 842 0
82 -201 842 0
-82 -201 -842 0
842 320 -439 0
-842 320 439 0
842 -320 439 0
-842 -320 -439 0
320 -843 0
842 -843 0
-320 -842 843 0
201 -844 0
82 -844 0
-201 -82 844 0
-843 559 0
-844 559 0
843 844 -559 0
83 202 -845 0
-83 202 845 0
83 -202 845 0
-83 -202 -845 0
845 321 -440 0
-845 321 440 0
845 -321 440 0
-845 -321 -440 0
321 -846 0
845 -846 0
-321 -845 846 0
202 -847 0
83 -847 0
-202 -83 847 0
-846 560 0
-847 560 0
846 847 -560 0
84 203 -848 0
-84 203 848 0
84 -203 848 0
-84 -203 -848 0
848 322 -441 0
-848 322 441 0
848 -322 441 0
-848 -322 -441 0
322 -849 0
848 -849 0
-322 -848 849 0
203 -850 0
84 -850 0
-203 -84 850 0
-849 561 0
-850 561 0
849 850 -561 0
85 204 -851 0
-85 204 851 0
85 -204 851 0
-85 -204 -851 0
851 323 -442 0
-851 323 442 0
851 -323 442 0
-851 -323 -442 0
323 -852 0
851 -852 0
-323 -851 852 0
204 -853 0
85 -853 0
-204 -85 853 0
-852 562 0
-853 562 0
852 853 -562 0
86 205 -854 0
-86 205 854 0
86 -205 854 0
-86 -205 -854 0
854 324 -443 0
-854 324 443 0
854 -324 443 0
-854 -324 -443 0
324 -855 0
854 -855 0
-324 -854 855 0
205 -856 0
86 -856 0
-205 -86 856 0
-855 563 0
-856 563 0
855 856 -563 0
87 206 -857 0
-87 206 857 0
87 -206 857 0
-87 -206 -857 0
857 325 -444 0
-857 325 444 0
857 -325 444 0
-857 -325 -444 0
325 -858 0
857 -858 0
-325 -857 858 0
206 -859 0
87 -859 0
-206 -87 859 0
-858 564 0
-859 564 0
858 859 -564 0
88 207 -860 0
-88 207 860 0
88 -207 860 0
-88 -207 -860 0
860 326 -445 0
-860 326 445 0
860 -326 445 0
-860 -326 -445 0
326 -861 0
860 -861 0
-326 -860 861 0
207 -862 0
88 -862 0
-207 -88 862 0
-861 565 0
-862 565 0
861 862 -565 0
89 208 -863 0
-89 208 863 0
89 -208 863 0
-89 -208 -863 0
863 327 -446 0
-863 327 446 0
863 -327 446 0
-863 -327 -446 0
327 -864 0
863 -864 0
-327 -863 864 0
208 -865 0
89 -865 0
-208 -89 865 0
-864 566 0
-865 566 0
864 865 -566 0
90 209 -866 0
-90 209 866 0
90 -209 866 0
-90 -209 -866 0
866 328 -447 0
-866 328 447 0
866 -328 447 0
-866 -328 -447 0
328 -867 0
866 -867 0
-328 -866 867 0
209 -868 0
90 -868 0
-209 -90 868 0
-867 567 0
-868 567 0
867 868 -567 0
91 210 -869 0
-91 210 869 0
91 -210 869 0
-91 -210 -869 0
869 329 -448 0
-869 329 448 0
869 -329 448 0
-869 -329 -448 0
329 -870 0
869 -870 0
-329 -869 870 0
210 -871 0
91 -871 0
-210 -91 871 0
-870 568 0
-871 568 0
870 871 -568 0
92 211 -872 0
-92 211 872 0
92 -211 872 0
-92 -211 -872 0
872 330 -449 0
-872 330 449 0
872 -330 449 0
-872 -330 -449 0
330 -873 0
872 -873 0
-330 -872 873 0
211 -874 0
92 -874 0
-211 -92 874 0
-873 569 0
-874 569 0
873 874 -569 0
93 212 -875 0
-93 212 875 0
93 -212 875 0
-93 -212 -875 0
875 331 -450 0
-875 331 450 0
875 -331 450 0
-875 -331 -450 0
331 -876 0
875 -876 0
-331 -875 876 0
212 -877 0
93 -877 0
-212 -93 877 0
-876 570 0
-877 570 0
876 877 -570 0
94 213 -878 0
-94 213 878 0
94 -213 878 0
-94 -213 -878 0
878 332 -451 0
-878 332 451 0
878 -332 451 0
-878 -332 -451 0
332 -879 0
878 -879 0
-332 -878 879 0
213 -880 0
94 -880 0
-213 -94 880 0
-879 571 0
-880 571 0
879 880 -571 0
95 214 -881 0
-95 214 881 0
95 -214 881 0
-95 -214 -881 0
881 333 -452 0
-881 333 452 0
881 -333 452 0
-881 -333 -452 0
333 -882 0
881 -882 0
-333 -881 882 0
214 -883 0
95 -883 0
-214 -95 883 0
-882 572 0
-883 572 0
882 883 -572 0
96 215 -884 0
-96 215 884 0
96 -215 884 0
-96 -215 -884 0
884 334 -453 0
-884 334 453 0
884 -334 453 0
-884 -334 -453 0
334 -885 0
884 -885 0
-334 -884 885 0
215 -886 0
96 -886 0
-215 -96 886 0
-885 573 0
-886 573 0
885 886 -573 0
97 216 -887 0
-97 216 887 0
97 -216 887 0
-97 -216 -887 0
887 335 -454 0
-887 335 454 0
887 -335 454 0
-887 -335 -454 0
335 -888 0
887 -888 0
-335 -887 888 0
216 -889 0
97 -889 0
-216 -97 889 0
-888 574 0
-889 574 0
888 889 -574 0
98 217 -890 0
-98 217 890 0
98 -217 890 0
-98 -217 -890 0
890 336 -455 0
-890 336 455 0
890 -336 455 0
-890 -336 -455 0
336 -891 0
890 -891 0
-336 -890 891 0
217 -892 0
98 -892 0
-217 -98 892 0
-891 575 0
-892 575 0
891 892 -575 0
99 218 -893 0
-99 218 893 0
99 -218 893 0
-99 -218 -893 0
893 337 -456 0
-893 337 456 0
893 -337 456 0
-893 -337 -456 0
337 -894 0
893 -894 0
-337 -893 894 0
218 -895 0
99 -895 0
-218 -99 895 0
-894 576 0
-895 576 0
894 895 -576 0
100 219 -896 0
-100 219 896 0
100 -219 896 0
-100 -219 -896 0
896 338 -457 0
-896 338 457 0
896 -338 457 0
-896 -338 -457 0
338 -897 0
896 -897 0
-338 -896 897 0
219 -898 0
100 -898 0
-219 -100 898 0
-897 577 0
-898 577 0
897 898 -577 0
101 220 -899 0
-101 220 899 0
101 -220 899 0
-101 -220 -899 0
899 339 -458 0
-899 339 458 0
899 -339 458 0
-899 -339 -458 0
339 -900 0
899 -900 0
-339 -899 900 0
220 -901 0
101 -901 0
-220 -101 901 0
-900 578 0
-901 578 0
900 901 -578 0
102 221 -902 0
-102 221 902 0
102 -221 902 0
-102 -221 -902 0
902 340 -459 0
-902 340 459 0
902 -340 459 0
-902 -340 -459 0
340 -903 0
902 -903 0
-340 -902 903 0
221 -904 0
102 -904 0
-221 -102 904 0
-903 579 0
-904 579 0
903 904 -579 0
103 222 -905 0
-103 222 905 0
103 -222 905 0
-103 -222 -905 0
905 341 -460 0
-905 341 460 0
905 -341 460 0
-905 -341 -460 0
341 -906 0
905 -906 0
-341 -905 906 0
222 -907 0
103 -907 0
-222 -103 907 0
-906 580 0
-907 580 0
906 907 -580 0
104 223 -908 0
-104 223 908 0
104 -223 908 0
-104 -223 -908 0
908 342 -461 0
-908 342 461 0
908 -342 461 0
-908 -342 -461 0
342 -909 0
908 -909 0
-342 -908 909 0
223 -910 0
104 -910 0
-223 -104 910 0
-909 581 0
-910 581 0
909 910 -581 0
105 224 -911 0
-105 224 911 0
105 -224 911 0
-105 -224 -911 0
911 343 -462 0
-911 343 462 0
911 -343 462 0
-911 -343 -462 0
343 -912 0
911 -912 0
-343 -911 912 0
224 -913 0
105 -913 0
-224 -105 913 0
-912 582 0
-913 582 0
912 913 -582 0
106 225 -914 0
-106 225 914 0
106 -225 914 0
-106 -225 -914 0
914 344 -463 0
-914 344 463 0
914 -344 463 0
-914 -344 -463 0
344 -915 0
914 -915 0
-344 -914 915 0
225 -916 0
106 -916 0
-225 -106 916 0
-915 583 0
-916 583 0
915 916 -583 0
107 226 -917 0
-107 226 917 0
107 -226 917 0
-107 -226 -917 0
917 345 -464 0
-917 345 464 0
917 -345 464 0
-917 -345 -464 0
345 -918 0
917 -918 0
-345 -917 918 0
226 -919 0
107 -919 0
-226 -107 919 0
-918 584 0
-919 584 0
918 919 -584 0
108 227 -920 0
-108 227 920 0
108 -227 920 0
-108 -227 -920 0
920 346 -465 0
-920 346 465 0
920 -346 465 0
-920 -346 -465 0
346 -921 0
920 -921 0
-346 -920 921 0
227 -922 0
108 -922 0
-227 -108 922 0
-921 585 0
-922 585 0
921 922 -585 0
109 228 -923 0
-109 228 923 0
109 -228 923 0
-109 -228 -923 0
923 347 -466 0
-923 347 466 0
923 -347 466 0
-923 -347 -466 0
347 -924 0
923 -924 0
-347 -923 924 0
228 -925 0
109 -925 0
-228 -109 925 0
-924 586 0
-925 586 0
924 925 -586 0
110 229 -926 0
-110 229 926 0
110 -229 926 0
-110 -229 -926 0
926 348 -467 0
-926 348 467 0
926 -348 467 0
-926 -348 -467 0
348 -927 0
926 -927 0
-348 -926 927 0
229 -928 0
110 -928 0
-229 -110 928 0
-927 587 0
-928 587 0
927 928 -587 0
111 230 -929 0
-111 230 929 0
111 -230 929 0
-111 -230 -929 0
929 349 -468 0
-929 349 468 0
929 -349 468 0
-929 -349 -468 0
349 -930 0
929 -930 0
-349 -929 930 0
230 -931 0
111 -931 0
-230 -111 931 0
-930 588 0
-931 588 0
930 931 -588 0
112 231 -932 0
-112 231 932 0
112 -231 932 0
-112 -231 -932 0
932 350 -469 0
-932 350 469 0
932 -350 469 0
-932 -350 -469 0
350 -933 0
932 -933 0
-350 -932 933 0
231 -934 0
112 -934 0
-231 -112 934 0
-933 589 0
-934 589 0
933 934 -589 0
113 232 -935 0
-113 232 935 0
113 -232 935 0
-113 -232 -935 0
935 351 -470 0
-935 351 470 0
935 -351 470 0
-935 -351 -470 0
351 -936 0
935 -936 0
-351 -935 936 0
232 -937 0
113 -937 0
-232 -113 937 0
-936 590 0
-937 590 0
936 937 -590 0
114 233 -938 0
-114 233 938 0
114 -233 938 0
-114 -233 -938 0
938 352 -471 0
-938 352 471 0
938 -352 471 0
-938 -352 -471 0
352 -939 0
938 -939 0
-352 -938 939 0
233 -940 0
114 -940 0
-233 -114 940 0
-939 591 0
-940 591 0
939 940 -591 0
115 234 -941 0
-115 234 941 0
115 -234 941 0
-115 -234 -941 0
941 353 -472 0
-941 353 472 0
941 -353 472 0
-941 -353 -472 0
353 -942 0
941 -942 0
-353 -941 942 0
234 -943 0
115 -943 0
-234 -115 943 0
-942 592 0
-943 592 0
942 943 -592 0
116 235 -944 0
-116 235 944 0
116 -235 944 0
-116 -235 -944 0
944 354 -473 0
-944 354 473 0
944 -354 473 0
-944 -354 -473 0
354 -945 0
944 -945 0
-354 -944 945 0
235 -946 0
116 -946 0
-235 -116 946 0
-945 593 0
-946 593 0
945 946 -593 0
117 236 -947 0
-117 236 947 0
117 -236 947 0
-117 -236 -947 0
947 355 -474 0
-947 355 474 0
947 -355 474 0
-947 -355 -474 0
355 -948 0
947 -948 0
-355 -947 948 0
236 -949 0
117 -949 0
-236 -117 949 0
-948 594 0
-949 594 0
948 949 -594 0
118 237 -950 0
-118 237 950 0
118 -237 950 0
-118 -237 -950 0
950 356 -475 0
-950 356 475 0
950 -356 475 0
-950 -356 -475 0
356 -951 0
950 -951 0
-356 -950 951 0
237 -952 0
118 -952 0
-237 -118 952 0
-951 595 0
-952 595 0
951 952 -595 0
119 238 -953 0
-119 238 953 0
119 -238 953 0
-119 -238 -953 0
953 357 -476 0
-953 357 476 0
953 -357 476 0
-953 -357 -476 0
357 -954 0
953 -954 0
-357 -953 954 0
238 -955 0
119 -955 0
-238 -119 955 0
-954 596 0
-955 596 0
954 955 -596 0
